ITEM = 1..20;
capacity1 = 220;
capacity2 = 190;
capacity3 = 205;
profits = [405, 392, 40, 506, 369, 345, 770, 692, 32, 627, 107, 210, 55, 396, 171, 206, 396, 949, 942, 233];
weights = [41, 26, 54, 26, 73, 15, 50, 41, 99, 23, 20, 84, 35, 18, 96, 80, 96, 49, 39, 23];
